10 45
1 2 5
1 3 2
1 4 8
1 5 1
1 6 26
1 7 26
1 8 12
1 9 9
1 10 5
2 3 23
2 4 6
2 5 4
2 6 0
2 7 27
2 8 6
2 9 6
2 10 22
3 4 1
3 5 9
3 6 22
3 7 20
3 8 28
3 9 4
3 10 14
4 5 19
4 6 19
4 7 13
4 8 25
4 9 13
4 10 21
5 6 13
5 7 5
5 8 28
5 9 22
5 10 14
6 7 25
6 8 24
6 9 3
6 10 24
7 8 9
7 9 21
7 10 21
8 9 0
8 10 10
9 10 14
